*SENSE:Maximize
NAME          MODEL
ROWS
 N  OBJ
 L  C0000000
 L  C0000001
COLUMNS
    X0000001  C0000000   1.000000000000e+00
    X0000001  C0000001   6.000000000000e+00
    MARK      'MARKER'                 'INTORG'
    X0000001  C0000000   1.000000000000e+00
    X0000001  C0000001   6.000000000000e+00
    X0000001  OBJ        1.300000000000e-02
    MARK      'MARKER'                 'INTEND'
    X0000003  C0000000   3.000000000000e+00
    X0000003  C0000001   2.000000000000e+00
    X0000003  C0000000   3.000000000000e+00
    X0000003  C0000001   2.000000000000e+00
    X0000003  OBJ        8.000000000000e-03
RHS
    RHS       C0000000   3.000000000000e+01
    RHS       C0000001   2.000000000000e+01
BOUNDS
 FR BND       X0000001
 LO BND       X0000001   0.000000000000e+00
 FR BND       X0000003
ENDATA
